21° run output:
{
    "Function": "kroB1000.tsp",
    "Problem dimension": [
        342,
        141,
        207,
        576,
        919,
        17,
        306,
        703,
        883,
        403,
        480,
        782,
        674,
        954,
        664,
        416,
        555,
        138,
        791,
        159,
        150,
        956,
        972,
        862,
        562,
        235,
        266,
        295,
        3,
        764,
        569,
        426,
        406,
        753,
        893,
        454,
        196,
        347,
        93,
        754,
        491,
        120,
        742,
        692,
        358,
        621,
        101,
        427,
        394,
        872,
        906,
        557,
        629,
        852,
        840,
        97,
        274,
        422,
        314,
        461,
        596,
        434,
        23,
        788,
        962,
        951,
        383,
        33,
        823,
        210,
        997,
        801,
        324,
        620,
        166,
        965,
        675,
        697,
        973,
        262,
        464,
        934,
        450,
        854,
        646,
        189,
        600,
        115,
        271,
        857,
        18,
        609,
        146,
        661,
        330,
        549,
        991,
        217,
        879,
        57,
        509,
        484,
        55,
        4,
        623,
        34,
        679,
        611,
        790,
        145,
        423,
        834,
        587,
        746,
        669,
        39,
        305,
        916,
        763,
        731,
        379,
        577,
        775,
        900,
        591,
        740,
        368,
        966,
        535,
        86,
        58,
        811,
        684,
        566,
        924,
        170,
        542,
        486,
        74,
        634,
        488,
        931,
        805,
        944,
        498,
        653,
        412,
        267,
        908,
        887,
        384,
        841,
        722,
        352,
        229,
        563,
        757,
        829,
        483,
        671,
        476,
        766,
        13,
        574,
        277,
        452,
        768,
        758,
        837,
        241,
        783,
        456,
        169,
        268,
        844,
        177,
        209,
        787,
        340,
        239,
        721,
        333,
        874,
        468,
        755,
        240,
        827,
        140,
        734,
        148,
        231,
        415,
        651,
        912,
        686,
        888,
        635,
        234,
        808,
        365,
        348,
        134,
        111,
        952,
        846,
        583,
        72,
        337,
        419,
        745,
        946,
        779,
        213,
        792,
        778,
        428,
        430,
        638,
        511,
        179,
        869,
        374,
        737,
        310,
        907,
        126,
        40,
        254,
        299,
        772,
        327,
        405,
        682,
        109,
        1,
        917,
        297,
        95,
        129,
        221,
        552,
        132,
        472,
        173,
        724,
        663,
        149,
        325,
        466,
        228,
        735,
        518,
        151,
        981,
        977,
        929,
        326,
        950,
        155,
        957,
        612,
        114,
        278,
        795,
        178,
        922,
        156,
        641,
        568,
        625,
        739,
        457,
        24,
        192,
        349,
        501,
        923,
        311,
        842,
        438,
        838,
        603,
        362,
        272,
        995,
        881,
        157,
        548,
        131,
        319,
        988,
        10,
        218,
        689,
        826,
        451,
        762,
        510,
        230,
        475,
        465,
        29,
        90,
        654,
        392,
        848,
        220,
        205,
        283,
        789,
        361,
        505,
        332,
        855,
        644,
        504,
        211,
        889,
        593,
        839,
        958,
        104,
        460,
        680,
        698,
        28,
        909,
        373,
        410,
        660,
        82,
        672,
        32,
        736,
        455,
        78,
        320,
        318,
        66,
        902,
        588,
        116,
        378,
        407,
        432,
        645,
        648,
        296,
        119,
        382,
        80,
        389,
        147,
        232,
        65,
        453,
        928,
        964,
        292,
        960,
        474,
        756,
        691,
        247,
        494,
        307,
        338,
        49,
        517,
        945,
        193,
        701,
        37,
        158,
        197,
        391,
        328,
        614,
        521,
        54,
        71,
        15,
        47,
        124,
        976,
        256,
        830,
        470,
        771,
        248,
        165,
        253,
        180,
        133,
        260,
        545,
        445,
        556,
        747,
        970,
        52,
        473,
        980,
        581,
        514,
        448,
        864,
        520,
        901,
        667,
        36,
        711,
        393,
        127,
        443,
        853,
        50,
        676,
        144,
        561,
        402,
        659,
        885,
        174,
        357,
        942,
        329,
        732,
        396,
        979,
        273,
        279,
        83,
        836,
        886,
        167,
        515,
        943,
        720,
        618,
        624,
        200,
        815,
        636,
        22,
        847,
        752,
        447,
        615,
        142,
        395,
        117,
        302,
        729,
        544,
        999,
        190,
        366,
        987,
        715,
        44,
        637,
        584,
        851,
        597,
        490,
        639,
        103,
        937,
        139,
        708,
        607,
        859,
        508,
        164,
        941,
        371,
        462,
        938,
        98,
        974,
        873,
        59,
        31,
        793,
        171,
        723,
        261,
        76,
        153,
        595,
        467,
        130,
        70,
        503,
        309,
        580,
        186,
        69,
        718,
        477,
        985,
        259,
        282,
        554,
        814,
        513,
        321,
        915,
        182,
        30,
        626,
        643,
        257,
        877,
        525,
        77,
        26,
        495,
        350,
        540,
        212,
        978,
        798,
        802,
        662,
        469,
        237,
        992,
        717,
        551,
        198,
        726,
        709,
        9,
        449,
        769,
        16,
        161,
        99,
        897,
        702,
        377,
        105,
        705,
        750,
        152,
        947,
        541,
        845,
        345,
        316,
        751,
        953,
        289,
        172,
        567,
        658,
        710,
        242,
        243,
        19,
        948,
        738,
        188,
        849,
        818,
        68,
        250,
        993,
        293,
        804,
        96,
        363,
        300,
        502,
        608,
        673,
        493,
        843,
        512,
        375,
        622,
        586,
        507,
        550,
        202,
        440,
        222,
        546,
        359,
        816,
        760,
        429,
        110,
        113,
        471,
        761,
        339,
        125,
        287,
        553,
        539,
        579,
        786,
        219,
        959,
        543,
        633,
        564,
        969,
        304,
        642,
        442,
        714,
        85,
        730,
        527,
        481,
        706,
        122,
        64,
        926,
        380,
        565,
        335,
        589,
        796,
        344,
        606,
        812,
        143,
        263,
        265,
        425,
        108,
        216,
        640,
        163,
        932,
        323,
        84,
        106,
        191,
        880,
        341,
        411,
        776,
        800,
        346,
        0,
        712,
        803,
        48,
        313,
        397,
        774,
        617,
        385,
        276,
        989,
        610,
        813,
        506,
        531,
        601,
        695,
        875,
        485,
        526,
        560,
        725,
        858,
        308,
        275,
        619,
        534,
        298,
        369,
        728,
        657,
        939,
        27,
        183,
        121,
        187,
        418,
        226,
        905,
        910,
        570,
        2,
        604,
        252,
        89,
        56,
        961,
        940,
        670,
        63,
        824,
        264,
        678,
        286,
        631,
        767,
        538,
        968,
        632,
        936,
        719,
        185,
        743,
        585,
        291,
        14,
        895,
        878,
        807,
        523,
        578,
        528,
        386,
        655,
        45,
        806,
        727,
        773,
        817,
        590,
        284,
        441,
        704,
        819,
        184,
        809,
        558,
        343,
        356,
        214,
        249,
        245,
        822,
        821,
        571,
        898,
        42,
        351,
        694,
        409,
        224,
        794,
        479,
        496,
        522,
        92,
        537,
        431,
        372,
        12,
        225,
        290,
        123,
        364,
        408,
        424,
        903,
        176,
        420,
        524,
        647,
        381,
        312,
        67,
        810,
        458,
        53,
        967,
        665,
        317,
        613,
        444,
        904,
        414,
        79,
        700,
        690,
        336,
        399,
        713,
        91,
        860,
        850,
        863,
        168,
        559,
        269,
        519,
        315,
        573,
        649,
        927,
        322,
        353,
        984,
        749,
        387,
        223,
        890,
        497,
        949,
        81,
        354,
        921,
        935,
        741,
        400,
        575,
        685,
        303,
        831,
        233,
        828,
        280,
        478,
        355,
        7,
        856,
        46,
        892,
        532,
        255,
        687,
        983,
        770,
        866,
        918,
        681,
        920,
        360,
        439,
        975,
        51,
        61,
        236,
        294,
        933,
        436,
        137,
        516,
        489,
        914,
        530,
        135,
        832,
        896,
        986,
        102,
        547,
        605,
        136,
        716,
        572,
        780,
        128,
        238,
        913,
        784,
        107,
        894,
        459,
        536,
        582,
        925,
        388,
        668,
        244,
        744,
        203,
        175,
        206,
        195,
        799,
        285,
        699,
        417,
        208,
        650,
        6,
        971,
        390,
        592,
        281,
        201,
        982,
        693,
        955,
        181,
        882,
        288,
        616,
        990,
        160,
        421,
        871,
        998,
        199,
        529,
        194,
        118,
        683,
        35,
        367,
        301,
        492,
        401,
        94,
        733,
        884,
        759,
        62,
        437,
        876,
        865,
        43,
        833,
        652,
        797,
        413,
        227,
        8,
        656,
        748,
        75,
        433,
        777,
        100,
        87,
        331,
        162,
        398,
        628,
        963,
        594,
        785,
        696,
        666,
        38,
        334,
        482,
        835,
        60,
        11,
        598,
        870,
        867,
        435,
        533,
        204,
        500,
        765,
        5,
        994,
        781,
        911,
        930,
        446,
        677,
        41,
        899,
        215,
        88,
        599,
        21,
        688,
        602,
        627,
        868,
        820,
        996,
        270,
        258,
        73,
        20,
        251,
        370,
        154,
        861,
        707,
        463,
        404,
        825,
        246,
        25,
        630,
        499,
        112,
        891,
        376,
        487
    ],
    "Global Optimum": 0,
    "Algorithm": "Genetic algorithm",
    "Parameters": {
        "population": 30,
        "offspring": 30,
        "mutation probability": 0.001,
        "crossover probability": 0.9
    },
    "Fitness": 1321184,
    "Solution": [
        342,
        141,
        207,
        576,
        919,
        17,
        306,
        703,
        883,
        403,
        480,
        782,
        674,
        954,
        664,
        416,
        555,
        138,
        791,
        159,
        150,
        956,
        972,
        862,
        562,
        235,
        266,
        295,
        3,
        764,
        569,
        426,
        406,
        753,
        893,
        454,
        196,
        347,
        93,
        754,
        491,
        120,
        742,
        692,
        358,
        621,
        101,
        427,
        394,
        872,
        906,
        557,
        629,
        852,
        840,
        97,
        274,
        422,
        314,
        461,
        596,
        434,
        23,
        788,
        962,
        951,
        383,
        33,
        823,
        210,
        997,
        801,
        324,
        620,
        166,
        965,
        675,
        697,
        973,
        262,
        464,
        934,
        450,
        854,
        646,
        189,
        600,
        115,
        271,
        857,
        18,
        609,
        146,
        661,
        330,
        549,
        991,
        217,
        879,
        57,
        509,
        484,
        55,
        4,
        623,
        34,
        679,
        611,
        790,
        145,
        423,
        834,
        587,
        746,
        669,
        39,
        305,
        916,
        763,
        731,
        379,
        577,
        775,
        900,
        591,
        740,
        368,
        966,
        535,
        86,
        58,
        811,
        684,
        566,
        924,
        170,
        542,
        486,
        74,
        634,
        488,
        931,
        805,
        944,
        498,
        653,
        412,
        267,
        908,
        887,
        384,
        841,
        722,
        352,
        229,
        563,
        757,
        829,
        483,
        671,
        476,
        766,
        13,
        574,
        277,
        452,
        768,
        758,
        837,
        241,
        783,
        456,
        169,
        268,
        844,
        177,
        209,
        787,
        340,
        239,
        721,
        333,
        874,
        468,
        755,
        240,
        827,
        140,
        734,
        148,
        231,
        415,
        651,
        912,
        686,
        888,
        635,
        234,
        808,
        365,
        348,
        134,
        111,
        952,
        846,
        583,
        72,
        337,
        419,
        745,
        946,
        779,
        213,
        792,
        778,
        428,
        430,
        638,
        511,
        179,
        869,
        374,
        737,
        310,
        907,
        126,
        40,
        254,
        299,
        772,
        327,
        405,
        682,
        109,
        1,
        917,
        297,
        95,
        129,
        221,
        552,
        132,
        472,
        173,
        724,
        663,
        149,
        325,
        466,
        228,
        735,
        518,
        151,
        981,
        977,
        929,
        326,
        950,
        155,
        957,
        612,
        114,
        278,
        795,
        178,
        922,
        156,
        641,
        568,
        625,
        739,
        457,
        24,
        192,
        349,
        501,
        923,
        311,
        842,
        438,
        838,
        603,
        362,
        272,
        995,
        881,
        157,
        548,
        131,
        319,
        988,
        10,
        218,
        689,
        826,
        451,
        762,
        510,
        230,
        475,
        465,
        29,
        90,
        654,
        392,
        848,
        220,
        205,
        283,
        789,
        361,
        505,
        332,
        855,
        644,
        504,
        211,
        889,
        593,
        839,
        958,
        104,
        460,
        680,
        698,
        28,
        909,
        373,
        410,
        660,
        82,
        672,
        32,
        736,
        455,
        78,
        320,
        318,
        66,
        902,
        588,
        116,
        378,
        407,
        432,
        645,
        648,
        296,
        119,
        382,
        80,
        389,
        147,
        232,
        65,
        453,
        928,
        964,
        292,
        960,
        474,
        756,
        691,
        247,
        494,
        307,
        338,
        49,
        517,
        945,
        193,
        701,
        37,
        158,
        197,
        391,
        328,
        614,
        521,
        54,
        71,
        15,
        47,
        124,
        976,
        256,
        830,
        470,
        771,
        248,
        165,
        253,
        180,
        133,
        260,
        545,
        445,
        556,
        747,
        970,
        52,
        473,
        980,
        581,
        514,
        448,
        864,
        520,
        901,
        667,
        36,
        711,
        393,
        127,
        443,
        853,
        50,
        676,
        144,
        561,
        402,
        659,
        885,
        174,
        357,
        942,
        329,
        732,
        396,
        979,
        273,
        279,
        83,
        836,
        886,
        167,
        515,
        943,
        720,
        618,
        624,
        200,
        815,
        636,
        22,
        847,
        752,
        447,
        615,
        142,
        395,
        117,
        302,
        729,
        544,
        999,
        190,
        366,
        987,
        715,
        44,
        637,
        584,
        851,
        597,
        490,
        639,
        103,
        937,
        139,
        708,
        607,
        859,
        508,
        164,
        941,
        371,
        462,
        938,
        98,
        974,
        873,
        59,
        31,
        793,
        171,
        723,
        261,
        76,
        153,
        595,
        467,
        130,
        70,
        503,
        309,
        580,
        186,
        69,
        718,
        477,
        985,
        259,
        282,
        554,
        814,
        513,
        321,
        915,
        182,
        30,
        626,
        643,
        257,
        877,
        525,
        77,
        26,
        495,
        350,
        540,
        212,
        978,
        798,
        802,
        662,
        469,
        237,
        992,
        717,
        551,
        198,
        726,
        709,
        9,
        449,
        769,
        16,
        161,
        99,
        897,
        702,
        377,
        105,
        705,
        750,
        152,
        947,
        541,
        845,
        345,
        316,
        751,
        953,
        289,
        172,
        567,
        658,
        710,
        242,
        243,
        19,
        948,
        738,
        188,
        849,
        818,
        68,
        250,
        993,
        293,
        804,
        96,
        363,
        300,
        502,
        608,
        673,
        493,
        843,
        512,
        375,
        622,
        586,
        507,
        550,
        202,
        440,
        222,
        546,
        359,
        816,
        760,
        429,
        110,
        113,
        471,
        761,
        339,
        125,
        287,
        553,
        539,
        579,
        786,
        219,
        959,
        543,
        633,
        564,
        969,
        304,
        642,
        442,
        714,
        85,
        730,
        527,
        481,
        706,
        122,
        64,
        926,
        380,
        565,
        335,
        589,
        796,
        344,
        606,
        812,
        143,
        263,
        265,
        425,
        108,
        216,
        640,
        163,
        932,
        323,
        84,
        106,
        191,
        880,
        341,
        411,
        776,
        800,
        346,
        0,
        712,
        803,
        48,
        313,
        397,
        774,
        617,
        385,
        276,
        989,
        610,
        813,
        506,
        531,
        601,
        695,
        875,
        485,
        526,
        560,
        725,
        858,
        308,
        275,
        619,
        534,
        298,
        369,
        728,
        657,
        939,
        27,
        183,
        121,
        187,
        418,
        226,
        905,
        910,
        570,
        2,
        604,
        252,
        89,
        56,
        961,
        940,
        670,
        63,
        824,
        264,
        678,
        286,
        631,
        767,
        538,
        968,
        632,
        936,
        719,
        185,
        743,
        585,
        291,
        14,
        895,
        878,
        807,
        523,
        578,
        528,
        386,
        655,
        45,
        806,
        727,
        773,
        817,
        590,
        284,
        441,
        704,
        819,
        184,
        809,
        558,
        343,
        356,
        214,
        249,
        245,
        822,
        821,
        571,
        898,
        42,
        351,
        694,
        409,
        224,
        794,
        479,
        496,
        522,
        92,
        537,
        431,
        372,
        12,
        225,
        290,
        123,
        364,
        408,
        424,
        903,
        176,
        420,
        524,
        647,
        381,
        312,
        67,
        810,
        458,
        53,
        967,
        665,
        317,
        613,
        444,
        904,
        414,
        79,
        700,
        690,
        336,
        399,
        713,
        91,
        860,
        850,
        863,
        168,
        559,
        269,
        519,
        315,
        573,
        649,
        927,
        322,
        353,
        984,
        749,
        387,
        223,
        890,
        497,
        949,
        81,
        354,
        921,
        935,
        741,
        400,
        575,
        685,
        303,
        831,
        233,
        828,
        280,
        478,
        355,
        7,
        856,
        46,
        892,
        532,
        255,
        687,
        983,
        770,
        866,
        918,
        681,
        920,
        360,
        439,
        975,
        51,
        61,
        236,
        294,
        933,
        436,
        137,
        516,
        489,
        914,
        530,
        135,
        832,
        896,
        986,
        102,
        547,
        605,
        136,
        716,
        572,
        780,
        128,
        238,
        913,
        784,
        107,
        894,
        459,
        536,
        582,
        925,
        388,
        668,
        244,
        744,
        203,
        175,
        206,
        195,
        799,
        285,
        699,
        417,
        208,
        650,
        6,
        971,
        390,
        592,
        281,
        201,
        982,
        693,
        955,
        181,
        882,
        288,
        616,
        990,
        160,
        421,
        871,
        998,
        199,
        529,
        194,
        118,
        683,
        35,
        367,
        301,
        492,
        401,
        94,
        733,
        884,
        759,
        62,
        437,
        876,
        865,
        43,
        833,
        652,
        797,
        413,
        227,
        8,
        656,
        748,
        75,
        433,
        777,
        100,
        87,
        331,
        162,
        398,
        628,
        963,
        594,
        785,
        696,
        666,
        38,
        334,
        482,
        835,
        60,
        11,
        598,
        870,
        867,
        435,
        533,
        204,
        500,
        765,
        5,
        994,
        781,
        911,
        930,
        446,
        677,
        41,
        899,
        215,
        88,
        599,
        21,
        688,
        602,
        627,
        868,
        820,
        996,
        270,
        258,
        73,
        20,
        251,
        370,
        154,
        861,
        707,
        463,
        404,
        825,
        246,
        25,
        630,
        499,
        112,
        891,
        376,
        487
    ],
    "Nb of functions evaluations": 400020,
    "Computational time in seconds": 6720.067207098007,
    "Stopping criterion in evaluations": 400000
}